
;this file is automatically generated: Mon Feb 10 17:02:04 CST 2020

;declarations generated

(declare-fun obj_7e5568c1_f989_4c88_9234_963b979c063f ( Int) Int)
(declare-fun oclExcludes ( Int Int) Bool)
(declare-fun Cardinality ( Int) Int)
(declare-fun type_25c13bc2_0b1f_4479_b492_d4e4ca77fde9_Class2 ( Int) Bool)
(declare-fun oclSelect ( Int Bool) Int)
(declare-fun Enum0 ( Int) Int)
(declare-fun Enum1 ( Int) Int)
(declare-fun container_ ( Int) Int)
(declare-fun class2_Class2IntAttr4 ( Int) Int)
(declare-fun class2_Class2IntAttr3 ( Int) Int)
(declare-fun oclIncludes ( Int Int) Bool)
(declare-fun ObjAt ( Int Int) Int)

;formula(s) generated
(assert (! (forall ((c2_1 Int)(c2_2 Int)) (=> (and ( type_25c13bc2_0b1f_4479_b492_d4e4ca77fde9_Class2 c2_1 )  ( type_25c13bc2_0b1f_4479_b492_d4e4ca77fde9_Class2 c2_2 ) ) (<= ( class2_Class2IntAttr3 ( obj_7e5568c1_f989_4c88_9234_963b979c063f c2_1 )  )  ( class2_Class2IntAttr4 ( obj_7e5568c1_f989_4c88_9234_963b979c063f c2_2 )  ) ))):named l0))
(assert (! (forall ((v Int)) (=> ( type_25c13bc2_0b1f_4479_b492_d4e4ca77fde9_Class2 v )  (> ( class2_Class2IntAttr4 ( obj_7e5568c1_f989_4c88_9234_963b979c063f v )  )  10))):named l1))
(assert (exists ((o Int)) ( type_25c13bc2_0b1f_4479_b492_d4e4ca77fde9_Class2 ( obj_7e5568c1_f989_4c88_9234_963b979c063f o )  ) ))

 ;end of formula 